/* Objective function*/
max: 1.97 x1y1+ 2.48 x1y2 + 1.55 x1y3 + 2.56 x1y4 + 4.0 x1y5
 + 0.99 x1y6 + 0.66 x1y7 + 1.33 x1y8 + 0.78 x1y9 + 1.1 x1y10 + 2.2 x1y11 + 2.3 x1y12

/* Constraints*/

y1x1 + y1x2 + y1x3+ y1x4 + y1x5 + y1x6 + y1x7 + y1x8 + y1x9 + y1x10 + y1x11 + y1 x12 = 3;
y2x1 + y2x2 + y2x3+ y2x4 + y2x5 + y2x6 + y2x7 + y2x8 + y2x9 + y2x10 + y2x11 + y2 x12 = 3;
y3x1 + y3x2 + y3x3+ y3x4 + y3x5 + y3x6 + y3x7 + y3x8 + y3x9 + y3x10 + y3x11 + y3 x12 = 3;
y4x1 + y4x2 + y4x3+ y4x4 + y4x5 + y4x6 + y4x7 + y4x8 + y4x9 + y4x10 + y4x11 + y4 x12 = 3;

/*All groups have equal chance of getting succeed*/
1.97 x1y1+ 2.48 x1y2 + 1.55 x1y3 + 2.56 x1y4 + 4.0 x1y5
 + 0.99 x1y6 + 0.66 x1y7 + 1.33 x1y8 + 0.78 x1y9 + 1.1 x1y10 + 2.2 x1y11 + 2.3 x1y12
